p cnf 9 20
c Stations: 2 3 4 
c Channels: 16 14 15 
-1 -3 0
-1 -2 0
-2 -3 0
2 0
-4 -6 0
-4 -5 0
-5 -6 0
4 5 6 0
-3 -6 0
-1 -4 0
-2 -5 0
-7 -9 0
-7 -8 0
-8 -9 0
7 8 9 0
-6 -9 0
-4 -7 0
-5 -8 0
-5 -7 0
-6 -8 0
